\ Model Linear_Regression_no_regularisation
\ LP format - for model browsing. Use MPS format to capture full model detail.
Minimize
  0.05 abs_0 + 0.05 abs_1 + 0.05 abs_2 + 0.05 abs_3 + 0.05 abs_4
   + 0.05 abs_5 + 0.05 abs_6 + 0.05 abs_7 + 0.05 abs_8 + 0.05 abs_9
   + 0.05 abs_10 + 0.05 abs_11 + 0.05 abs_12 + 0.05 abs_13 + 0.05 abs_14
   + 0.05 abs_15 + 0.05 abs_16 + 0.05 abs_17 + 0.05 abs_18 + 0.05 abs_19
Subject To
 R0: - w0 - 1.191777387220301 w1 + C3 = -1.323425616231879
 R1: - w0 - 0.4627005000636914 w1 + C5 = -1.370665138887607
 R2: - w0 - 1.57991408238572 w1 + C7 = -1.965333867564891
 R3: - w0 - 1.174345729437642 w1 + C9 = -1.433832755766481
 R4: - w0 - 0.3862178522203878 w1 + C11 = -1.103649871721759
 R5: - w0 - 1.599214658346796 w1 + C13 = -1.793267854403062
 R6: - w0 - 0.0298233386325421 w1 + C15 = -1.04864279353429
 R7: - w0 - 1.76745729886752 w1 + C17 = -2.080284361757528
 R8: - w0 - 0.4399202965792479 w1 + C19 = -1.192137746784001
 R9: - w0 - 1.566704152458803 w1 + C21 = -1.806135531247109
 R10: - w0 - 1.865796436983025 w1 + C23 = -1.958375709518535
 R11: - w0 - 1.167737440805333 w1 + C25 = -1.694802037871787
 R12: - w0 - 0.1412639938351887 w1 + C27 = -1.038657996984656
 R13: - w0 - 0.4287997687045213 w1 + C29 = -1.188428442262807
 R14: - w0 - 1.745309890430616 w1 + C31 = -1.640253474983584
 R15: - w0 - 0.0120915286143841 w1 + C33 = -1.015740105154938
 R16: - w0 - 1.143281081246642 w1 + C35 = -1.578193196022939
 R17: - w0 - 1.26651269644896 w1 + C37 = -1.641840087859472
 R18: - w0 - 0.3558416441762195 w1 + C39 = -1.298874767668618
 R19: - w0 - 0.2498835821909206 w1 + C41 = -1.171367148825518
Bounds
General Constraints
 absconstr_0: abs_0 = ABS ( C3 )
 absconstr_1: abs_1 = ABS ( C5 )
 absconstr_2: abs_2 = ABS ( C7 )
 absconstr_3: abs_3 = ABS ( C9 )
 absconstr_4: abs_4 = ABS ( C11 )
 absconstr_5: abs_5 = ABS ( C13 )
 absconstr_6: abs_6 = ABS ( C15 )
 absconstr_7: abs_7 = ABS ( C17 )
 absconstr_8: abs_8 = ABS ( C19 )
 absconstr_9: abs_9 = ABS ( C21 )
 absconstr_10: abs_10 = ABS ( C23 )
 absconstr_11: abs_11 = ABS ( C25 )
 absconstr_12: abs_12 = ABS ( C27 )
 absconstr_13: abs_13 = ABS ( C29 )
 absconstr_14: abs_14 = ABS ( C31 )
 absconstr_15: abs_15 = ABS ( C33 )
 absconstr_16: abs_16 = ABS ( C35 )
 absconstr_17: abs_17 = ABS ( C37 )
 absconstr_18: abs_18 = ABS ( C39 )
 absconstr_19: abs_19 = ABS ( C41 )
End
